Solving original (integer) problem with strategy gdp.hull_exact...
--- Job model.gms Start 02/15/26 21:42:01 52.2.0 d8e408be LEX-LEG x86 64bit/Linux
--- Applying:
    /package/gams/52.2/gmsprmun.txt
--- GAMS Parameters defined
    Input /local/scratch/a/sgusev/repos/k_means/data/gams_scip_gdp.hull_exact/no_mode/2026-02-15_21-42-00/original/model.gms
    Output /local/scratch/a/sgusev/repos/k_means/data/gams_scip_gdp.hull_exact/no_mode/2026-02-15_21-42-00/original/output.lst
    ScrDir /local/scratch/a/sgusev/repos/k_means/data/gams_scip_gdp.hull_exact/no_mode/2026-02-15_21-42-00/original/225a/
    SysDir /package/gams/52.2/
    CurDir /local/scratch/a/sgusev/repos/k_means/data/gams_scip_gdp.hull_exact/no_mode/2026-02-15_21-42-00/original/
    LogOption 3
    AppendLog 1
Licensee: David Bernal / SECQUOIA Research Group         G251008+0003Ac-GEN
          Purdue University, Davidson School of Chemical EngineeringDCE4838
          225a/gamslice.dat
          5a82958a-fbca-4a23
          node:66820903 mem:995 cores:48 ipport:56363 v:2                  
          Evaluation license: Not for commercial or production use
          The time-limited license stops working on : Jun 30, 2027
System information: 48 physical cores and 995 Gb physical memory detected
GAMS 52.2.0   Copyright (C) 1987-2025 GAMS Development. All rights reserved
--- Starting compilation
--- model.gms(1772) 2 Mb
--- $echo File /local/scratch/a/sgusev/repos/k_means/data/gams_scip_gdp.hull_exact/no_mode/2026-02-15_21-42-00/original/scip.opt
--- model.gms(2632) 2 Mb
--- Starting execution: elapsed 0:00:00.012
--- model.gms(1782) 3 Mb
--- Generating MINLP model GAMS_MODEL
--- model.gms(1786) 5 Mb
---   533 rows  260 columns  1,285 non-zeroes
---   840 nl-code  150 nl-non-zeroes
---   30 discrete-columns
--- Range statistics (absolute non-zero finite values)
--- RHS       [min, max] : [ 1.000E+00, 1.000E+00] - Zero values observed as well
--- Bound     [min, max] : [ 1.000E+00, 6.000E+01] - Zero values observed as well
--- Matrix    [min, max] : [ 1.000E+00, 6.000E+01] - Zero values observed as well
--- model.gms(1786) 3 Mb
--- Executing SCIP (Solvelink=5): elapsed 0:00:00.021

SCIP             52.2.0 d8e408be Dec 8, 2025           LEG x86 64bit/Linux    
SCIP version 9.2.4 (a94f778ac8)
Copyright (c) 2002-2025 Zuse Institute Berlin (ZIB)

External libraries: 
  CPLEX 22.1.2.0       Linear Programming Solver developed by IBM (www.cplex.com)
  CppAD 20180000.0     Algorithmic Differentiation of C++ algorithms developed by B. Bell (github.com/coin-or/CppAD)
  PaPILO 2.4.4         parallel presolve for integer and linear optimization (github.com/scipopt/papilo) (built with TBB) [GitHash: 7c826d50]
  Nauty 2.8.9          Computing Graph Automorphism Groups by Brendan D. McKay (users.cecs.anu.edu.au/~bdm/nauty)
  sassy 1.1            Symmetry preprocessor by Markus Anders (github.com/markusa4/sassy)
  Ipopt 3.14.19        Interior Point Optimizer developed by A. Waechter et.al. (github.com/coin-or/Ipopt)

reading option file /local/scratch/a/sgusev/repos/k_means/data/gams_scip_gdp.hull_exact/no_mode/2026-02-15_21-42-00/original/scip.opt
non-default parameter settings:
limits/time = 300
limits/gap = 1e-06
limits/absgap = 1e-10
lp/threads = 1
misc/printreason = FALSE
numerics/dualfeastol = 1e-06
parallel/maxnthreads = 1
nlpi/ipopt/linear_solver = "ma27"
nlpi/ipopt/linear_system_scaling = "mc19"

original problem has 259 variables (30 bin, 0 int, 229 cont) and 532 constraints

all 1 solutions given by solution candidate storage are infeasible

presolving:
(round 1, fast)       10 del vars, 0 del conss, 0 add conss, 0 chg bounds, 0 chg sides, 0 chg coeffs, 0 upgd conss, 0 impls, 10 clqs
(round 2, fast)       10 del vars, 0 del conss, 0 add conss, 0 chg bounds, 10 chg sides, 0 chg coeffs, 0 upgd conss, 0 impls, 10 clqs
(round 3, exhaustive) 10 del vars, 0 del conss, 0 add conss, 0 chg bounds, 10 chg sides, 0 chg coeffs, 400 upgd conss, 0 impls, 10 clqs
   (0.0s) probing cycle finished: starting next cycle
   (0.0s) symmetry computation started: requiring (bin +, int +, cont +), (fixed: bin -, int -, cont -)
   (0.0s) no symmetry present (symcode time: 0.00)
presolving (4 rounds: 4 fast, 2 medium, 2 exhaustive):
 10 deleted vars, 0 deleted constraints, 0 added constraints, 0 tightened bounds, 0 added holes, 10 changed sides, 0 changed coefficients
 810 implications, 10 cliques
presolved problem has 249 variables (30 bin, 0 int, 0 impl, 219 cont) and 532 constraints
    390 constraints of type <varbound>
     10 constraints of type <setppc>
    102 constraints of type <linear>
     30 constraints of type <nonlinear>
Presolving Time: 0.02

 time | node  | left  |LP iter|LP it/n|mem/heur|mdpt |vars |cons |rows |cuts |sepa|confs|strbr|  dualbound   | primalbound  |  gap   | compl. 
  0.1s|     1 |     0 |   216 |     - |  5706k |   0 | 489 | 532 | 832 |   0 |  0 |   0 |   0 | 0.000000e+00 |      --      |    Inf | unknown
o 0.1s|     1 |     0 |   336 |     - |feaspump|   0 | 489 | 532 | 832 |   0 |  0 |   0 |   0 | 0.000000e+00 | 7.805351e+00 |    Inf | unknown
  0.1s|     1 |     0 |   457 |     - |  6318k |   0 | 489 | 532 | 890 |  58 |  1 |   0 |   0 | 0.000000e+00 | 7.805351e+00 |    Inf | unknown
  0.1s|     1 |     0 |   457 |     - |  6329k |   0 | 489 | 532 | 880 |  58 |  1 |   0 |   0 | 0.000000e+00 | 7.805351e+00 |    Inf | unknown
  0.1s|     1 |     0 |   526 |     - |  6420k |   0 | 489 | 532 | 925 | 103 |  2 |   0 |   0 | 0.000000e+00 | 7.805351e+00 |    Inf | unknown
  0.1s|     1 |     0 |   586 |     - |  6692k |   0 | 489 | 532 | 970 | 148 |  3 |   0 |   0 | 0.000000e+00 | 7.805351e+00 |    Inf | unknown
  0.1s|     1 |     0 |   665 |     - |  7077k |   0 | 489 | 532 |1018 | 196 |  4 |   0 |   0 | 0.000000e+00 | 7.805351e+00 |    Inf | unknown
  0.1s|     1 |     0 |   734 |     - |  7690k |   0 | 489 | 532 |1055 | 233 |  5 |   0 |   0 | 0.000000e+00 | 7.805351e+00 |    Inf | unknown
  0.2s|     1 |     0 |   789 |     - |  7884k |   0 | 489 | 532 |1092 | 270 |  6 |   0 |   0 | 0.000000e+00 | 7.805351e+00 |    Inf | unknown
  0.2s|     1 |     0 |   849 |     - |  8047k |   0 | 489 | 532 |1123 | 301 |  7 |   0 |   0 | 0.000000e+00 | 7.805351e+00 |    Inf | unknown
  0.2s|     1 |     0 |   904 |     - |  8267k |   0 | 489 | 532 |1155 | 333 |  8 |   0 |   0 | 0.000000e+00 | 7.805351e+00 |    Inf | unknown
  0.3s|     1 |     0 |   965 |     - |  8422k |   0 | 489 | 532 |1183 | 361 |  9 |   0 |   0 | 0.000000e+00 | 7.805351e+00 |    Inf | unknown
  0.3s|     1 |     0 |  1045 |     - |  8646k |   0 | 489 | 532 | 982 | 391 | 10 |   0 |   0 | 0.000000e+00 | 7.805351e+00 |    Inf | unknown
  0.3s|     1 |     0 |  1097 |     - |  8781k |   0 | 489 | 532 |1015 | 424 | 11 |   0 |   0 | 0.000000e+00 | 7.805351e+00 |    Inf | unknown
L 0.5s|     1 |     0 |  3580 |     - |    alns|   0 | 489 | 522 |1015 | 424 | 11 |   0 |   0 | 0.000000e+00 | 7.213096e+00 |    Inf | unknown
 time | node  | left  |LP iter|LP it/n|mem/heur|mdpt |vars |cons |rows |cuts |sepa|confs|strbr|  dualbound   | primalbound  |  gap   | compl. 
  1.0s|     1 |     0 |  3580 |     - |  9507k |   0 | 489 | 522 |1015 | 424 | 11 |   0 |   0 | 0.000000e+00 | 7.213096e+00 |    Inf | unknown
  1.1s|     1 |     0 |  3619 |     - |  9604k |   0 | 489 | 522 |1044 | 453 | 12 |   0 |   0 | 0.000000e+00 | 7.213096e+00 |    Inf | unknown
  1.1s|     1 |     0 |  3636 |     - |  9617k |   0 | 489 | 522 | 953 | 461 | 13 |   0 |   0 | 0.000000e+00 | 7.213096e+00 |    Inf | unknown
  1.2s|     1 |     2 |  3636 |     - |  9636k |   0 | 489 | 522 | 953 | 461 | 13 |   0 |  20 | 0.000000e+00 | 7.213096e+00 |    Inf | unknown
d 1.3s|     9 |    10 |  4966 | 478.5 |pscostdi|   6 | 489 | 522 |1035 |1099 |  7 |   0 |  56 | 0.000000e+00 | 6.973865e+00 |    Inf | unknown
d 1.4s|    21 |    22 |  7208 | 303.5 |fracdivi|   7 | 489 | 522 |1018 |2121 |  7 |   0 |  93 | 0.000000e+00 | 6.883104e+00 |    Inf | unknown
o 1.7s|    37 |    38 |  9918 | 243.9 |objpscos|  12 | 489 | 522 |1078 |3285 |  7 |   0 | 110 | 0.000000e+00 | 6.754929e+00 |    Inf | unknown
o 1.8s|    40 |    41 | 10591 | 242.4 |rootsold|  12 | 489 | 522 | 955 |3547 |  2 |   0 | 113 | 0.000000e+00 | 5.605459e+00 |    Inf | unknown
d 2.1s|    66 |    67 | 16379 | 234.5 |nlpdivin|  12 | 489 | 522 |1002 |   0 |  7 |   0 | 124 | 0.000000e+00 | 5.594541e+00 |    Inf | unknown
  2.5s|   100 |   101 | 24298 | 233.9 |    15M |  12 | 489 | 522 | 963 |9458 |  2 |   1 | 125 | 0.000000e+00 | 5.594541e+00 |    Inf | unknown
L 3.2s|   166 |   167 | 36968 | 217.2 |    gins|  14 | 489 | 522 |1105 |  14k|  8 |   2 | 127 | 8.790969e-01 | 5.337282e+00 | 507.13%| unknown
  3.5s|   200 |   199 | 43493 | 212.8 |    22M |  14 | 489 | 522 |1091 |  17k|  8 |   2 | 128 | 8.790992e-01 | 5.337282e+00 | 507.13%| unknown
* 4.2s|   286 |   211 | 55954 | 192.3 |    LP  |  17 | 489 | 522 |1245 |  23k| 10 |   3 | 132 | 1.365643e+00 | 3.821872e+00 | 179.86%|  13.72%
* 4.2s|   288 |   139 | 56189 | 191.8 |    LP  |  17 | 489 | 522 |1269 |  24k| 10 |   3 | 132 | 1.365643e+00 | 3.226488e+00 | 136.26%|  23.10%
  4.2s|   300 |   143 | 57555 | 188.7 |    26M |  17 | 489 | 522 |1126 |  24k|  7 |   6 | 134 | 1.525690e+00 | 3.226488e+00 | 111.48%|  25.82%
 time | node  | left  |LP iter|LP it/n|mem/heur|mdpt |vars |cons |rows |cuts |sepa|confs|strbr|  dualbound   | primalbound  |  gap   | compl. 
  4.7s|   400 |   133 | 65592 | 161.5 |    29M |  18 | 489 | 522 |1069 |  28k|  0 |  14 | 137 | 1.747776e+00 | 3.226488e+00 |  84.61%|  46.60%
  5.1s|   500 |   119 | 72182 | 142.4 |    30M |  18 | 489 | 523 |1044 |  31k|  1 |  25 | 141 | 2.004660e+00 | 3.226488e+00 |  60.95%|  59.39%
  5.4s|   600 |   103 | 77012 | 126.7 |    30M |  18 | 489 | 523 |1102 |  33k|  0 |  30 | 147 | 2.166743e+00 | 3.226488e+00 |  48.91%|  66.98%
  5.7s|   700 |    65 | 81695 | 115.2 |    31M |  18 | 489 | 523 |1019 |  35k|  2 |  33 | 147 | 2.442827e+00 | 3.226488e+00 |  32.08%|  80.81%
  6.0s|   800 |    27 | 86760 | 107.2 |    33M |  18 | 489 | 523 | 931 |  37k|  0 |  42 | 150 | 2.768184e+00 | 3.226488e+00 |  16.56%|  90.90%

SCIP Status        : problem is solved [optimal solution found]
Solving Time (sec) : 6.19
Solving Nodes      : 861
Primal Bound       : +3.22648830761321e+00 (11 solutions)
Dual Bound         : +3.22648830761321e+00
Gap                : 0.00 %


--- Reading solution for model GAMS_MODEL
***
*** Solver did not provide marginals for model GAMS_MODEL
***
--- Executing after solve: elapsed 0:00:06.266
--- model.gms(1789) 3 Mb
--- model.gms(2632) 5 Mb
--- Putfile results /local/scratch/a/sgusev/repos/k_means/data/gams_scip_gdp.hull_exact/no_mode/2026-02-15_21-42-00/original/results.dat
--- Putfile statresults /local/scratch/a/sgusev/repos/k_means/data/gams_scip_gdp.hull_exact/no_mode/2026-02-15_21-42-00/original/resultsstat.dat
*** Status: Normal completion
--- Job model.gms Stop 02/15/26 21:42:07 elapsed 0:00:06.268
Original problem solved. Time taken: 6.8669373989105225 seconds
Original objective value: 3.226488307613208
